NAME : instances/clustered-mixed-tsp/instance-23.tsp
COMMENT : No Comment
TYPE : TSP
DIMENSION: 47
EDGE_WEIGHT_TYPE : EUC_2D
NODE_COORD_SECTION
1 1538 80 
2 583 1135 
3 1866 1068 
4 1365 1873 
5 6 1908 
6 1912 760 
7 1258 1179 
8 26 912 
9 1090 379 
10 865 34 
11 620 661 
12 424 141 
13 1312 1203 
14 538 214 
15 680 426 
16 1896 1012 
17 781 91 
18 816 704 
19 1241 878 
20 221 354 
21 1962 961 
22 940 656 
23 1854 1170 
24 1689 1302 
25 1512 581 
26 742 206 
27 1948 101 
28 1481 1120 
29 249 1809 
30 897 1008 
31 1347 104 
32 557 572 
33 138 1303 
34 1461 403 
35 1034 1118 
36 1945 1701 
37 202 1773 
38 9 886 
39 550 256 
40 1588 352 
41 668 1730 
42 1691 970 
43 1119 365 
44 1225 350 
45 132 1239 
46 1599 482 
47 1191 203 
EOF
